ICHARG = 2
EDIFF  = 1E-7
ISMEAR = 1
SIGMA  = 0.2
IBRION = 2
VOSKOWN= 1
LCHARG =.FALSE.
LWAVE  =.FALSE.
ISPIN  = 2
PREC   = High
ENCUT = 350
NPAR = 8
ISIF = 2
NSW = 59
