ICHARG = 2
EDIFF  = 1E-7
SIGMA  = 0.2
VOSKOWN= 1
LCHARG =.FALSE.
LWAVE  =.FALSE.
ISPIN  = 2
ENCUT = 350
ISIF   = 2
ISMEAR = -5
NSW    = 1
IBRION = -1
PREC   = High
NEDOS  = 2000
NPAR   =  8
ENCUT  = 350
