hcpsqs16_25_75                          
   1.00000000000000     
     1.3963520437312142    2.5210209089076621    4.7139646667574731
    -2.9097625509909451    0.0164258591924664    4.7421672613768298
     5.8204638677797194  -10.1582238259397553   -0.0351082642254090
   Ag   Al
    12     4
Direct
  0.9854845066595295  0.0081306855154355  0.2462437007278513
  0.4894751275474237  0.5089047667402041  0.1161307034505246
  0.5727028835936864  0.9158051521294149  0.0498929788220845
  0.9924559729373551  0.0037839433571252  0.5049758181891484
  0.4935922986668708  0.5130218247573869  0.3770270405018992
  0.1011626459329849  0.4019609857581790  0.4424489175851728
  0.0923621645277198  0.4044851780467429  0.1847986808591962
  0.5953218255189541  0.9042891485916246  0.3125157502436331
  0.9897157775937326  0.9941259387021729  0.7616570958240623
  0.5090907376040607  0.5191914175133889  0.6343956176540048
  0.1114167979105134  0.4001629510180608  0.6886899031997715
  0.0651470095193834  0.4337892387618912  0.9294108447355446
  0.5982318137913111  0.9025865271116223  0.5549764463332016
  0.5750502400552827  0.9206014918208711  0.8110667509582742
  0.9943221266697356  0.0063792930213665  0.0102141247945765
  0.5011347378714394  0.4961147907545443  0.8755556261210470
 
  0.00000000E+00  0.00000000E+00  0.00000000E+00
  0.00000000E+00  0.00000000E+00  0.00000000E+00
  0.00000000E+00  0.00000000E+00  0.00000000E+00
  0.00000000E+00  0.00000000E+00  0.00000000E+00
  0.00000000E+00  0.00000000E+00  0.00000000E+00
  0.00000000E+00  0.00000000E+00  0.00000000E+00
  0.00000000E+00  0.00000000E+00  0.00000000E+00
  0.00000000E+00  0.00000000E+00  0.00000000E+00
  0.00000000E+00  0.00000000E+00  0.00000000E+00
  0.00000000E+00  0.00000000E+00  0.00000000E+00
  0.00000000E+00  0.00000000E+00  0.00000000E+00
  0.00000000E+00  0.00000000E+00  0.00000000E+00
  0.00000000E+00  0.00000000E+00  0.00000000E+00
  0.00000000E+00  0.00000000E+00  0.00000000E+00
  0.00000000E+00  0.00000000E+00  0.00000000E+00
  0.00000000E+00  0.00000000E+00  0.00000000E+00
